NAME :
TYPE : CCVRP
COMMENT :
DIMENSION : 256
CAPACITY : 1000
EDGE_WEIGHT_TYPE : EUC_2D_DBL
NODE_COORD_TYPE: TWOD_COORD
NODE_COORD_SECTION
1 0.0000 -15.0000
2 -1.0000 -14.0000
3 1.0000 -14.0000
4 -2.0000 -13.0000
5 0.0000 -13.0000
6 2.0000 -13.0000
7 -3.0000 -12.0000
8 -1.0000 -12.0000
9 1.0000 -12.0000
10 3.0000 -12.0000
11 -4.0000 -11.0000
12 -2.0000 -11.0000
13 0.0000 -11.0000
14 2.0000 -11.0000
15 4.0000 -11.0000
16 -5.0000 -10.0000
17 -3.0000 -10.0000
18 -1.0000 -10.0000
19 1.0000 -10.0000
20 3.0000 -10.0000
21 5.0000 -10.0000
22 -6.0000 -9.0000
23 -4.0000 -9.0000
24 -2.0000 -9.0000
25 0.0000 -9.0000
26 2.0000 -9.0000
27 4.0000 -9.0000
28 6.0000 -9.0000
29 -7.0000 -8.0000
30 -5.0000 -8.0000
31 -3.0000 -8.0000
32 -1.0000 -8.0000
33 1.0000 -8.0000
34 3.0000 -8.0000
35 5.0000 -8.0000
36 7.0000 -8.0000
37 -8.0000 -7.0000
38 -6.0000 -7.0000
39 -4.0000 -7.0000
40 -2.0000 -7.0000
41 0.0000 -7.0000
42 2.0000 -7.0000
43 4.0000 -7.0000
44 6.0000 -7.0000
45 8.0000 -7.0000
46 -9.0000 -6.0000
47 -7.0000 -6.0000
48 -5.0000 -6.0000
49 -3.0000 -6.0000
50 -1.0000 -6.0000
51 1.0000 -6.0000
52 3.0000 -6.0000
53 5.0000 -6.0000
54 7.0000 -6.0000
55 9.0000 -6.0000
56 -10.0000 -5.0000
57 -8.0000 -5.0000
58 -6.0000 -5.0000
59 -4.0000 -5.0000
60 -2.0000 -5.0000
61 0.0000 -5.0000
62 2.0000 -5.0000
63 4.0000 -5.0000
64 6.0000 -5.0000
65 8.0000 -5.0000
66 10.0000 -5.0000
67 -11.0000 -4.0000
68 -9.0000 -4.0000
69 -7.0000 -4.0000
70 -5.0000 -4.0000
71 -3.0000 -4.0000
72 -1.0000 -4.0000
73 1.0000 -4.0000
74 3.0000 -4.0000
75 5.0000 -4.0000
76 7.0000 -4.0000
77 9.0000 -4.0000
78 11.0000 -4.0000
79 -12.0000 -3.0000
80 -10.0000 -3.0000
81 -8.0000 -3.0000
82 -6.0000 -3.0000
83 -4.0000 -3.0000
84 -2.0000 -3.0000
85 0.0000 -3.0000
86 2.0000 -3.0000
87 4.0000 -3.0000
88 6.0000 -3.0000
89 8.0000 -3.0000
90 10.0000 -3.0000
91 12.0000 -3.0000
92 -13.0000 -2.0000
93 -11.0000 -2.0000
94 -9.0000 -2.0000
95 -7.0000 -2.0000
96 -5.0000 -2.0000
97 -3.0000 -2.0000
98 -1.0000 -2.0000
99 1.0000 -2.0000
100 3.0000 -2.0000
101 5.0000 -2.0000
102 7.0000 -2.0000
103 9.0000 -2.0000
104 11.0000 -2.0000
105 13.0000 -2.0000
106 -14.0000 -1.0000
107 -12.0000 -1.0000
108 -10.0000 -1.0000
109 -8.0000 -1.0000
110 -6.0000 -1.0000
111 -4.0000 -1.0000
112 -2.0000 -1.0000
113 0.0000 -1.0000
114 2.0000 -1.0000
115 4.0000 -1.0000
116 6.0000 -1.0000
117 8.0000 -1.0000
118 10.0000 -1.0000
119 12.0000 -1.0000
120 14.0000 -1.0000
121 -15.0000 0.0000
122 -13.0000 0.0000
123 -11.0000 0.0000
124 -9.0000 0.0000
125 -7.0000 0.0000
126 -5.0000 0.0000
127 -3.0000 0.0000
128 -1.0000 0.0000
129 1.0000 0.0000
130 3.0000 0.0000
131 5.0000 0.0000
132 7.0000 0.0000
133 9.0000 0.0000
134 11.0000 0.0000
135 13.0000 0.0000
136 15.0000 0.0000
137 -14.0000 1.0000
138 -12.0000 1.0000
139 -10.0000 1.0000
140 -8.0000 1.0000
141 -6.0000 1.0000
142 -4.0000 1.0000
143 -2.0000 1.0000
144 0.0000 1.0000
145 2.0000 1.0000
146 4.0000 1.0000
147 6.0000 1.0000
148 8.0000 1.0000
149 10.0000 1.0000
150 12.0000 1.0000
151 14.0000 1.0000
152 -13.0000 2.0000
153 -11.0000 2.0000
154 -9.0000 2.0000
155 -7.0000 2.0000
156 -5.0000 2.0000
157 -3.0000 2.0000
158 -1.0000 2.0000
159 1.0000 2.0000
160 3.0000 2.0000
161 5.0000 2.0000
162 7.0000 2.0000
163 9.0000 2.0000
164 11.0000 2.0000
165 13.0000 2.0000
166 -12.0000 3.0000
167 -10.0000 3.0000
168 -8.0000 3.0000
169 -6.0000 3.0000
170 -4.0000 3.0000
171 -2.0000 3.0000
172 0.0000 3.0000
173 2.0000 3.0000
174 4.0000 3.0000
175 6.0000 3.0000
176 8.0000 3.0000
177 10.0000 3.0000
178 12.0000 3.0000
179 -11.0000 4.0000
180 -9.0000 4.0000
181 -7.0000 4.0000
182 -5.0000 4.0000
183 -3.0000 4.0000
184 -1.0000 4.0000
185 1.0000 4.0000
186 3.0000 4.0000
187 5.0000 4.0000
188 7.0000 4.0000
189 9.0000 4.0000
190 11.0000 4.0000
191 -10.0000 5.0000
192 -8.0000 5.0000
193 -6.0000 5.0000
194 -4.0000 5.0000
195 -2.0000 5.0000
196 0.0000 5.0000
197 2.0000 5.0000
198 4.0000 5.0000
199 6.0000 5.0000
200 8.0000 5.0000
201 10.0000 5.0000
202 -9.0000 6.0000
203 -7.0000 6.0000
204 -5.0000 6.0000
205 -3.0000 6.0000
206 -1.0000 6.0000
207 1.0000 6.0000
208 3.0000 6.0000
209 5.0000 6.0000
210 7.0000 6.0000
211 9.0000 6.0000
212 -8.0000 7.0000
213 -6.0000 7.0000
214 -4.0000 7.0000
215 -2.0000 7.0000
216 0.0000 7.0000
217 2.0000 7.0000
218 4.0000 7.0000
219 6.0000 7.0000
220 8.0000 7.0000
221 -7.0000 8.0000
222 -5.0000 8.0000
223 -3.0000 8.0000
224 -1.0000 8.0000
225 1.0000 8.0000
226 3.0000 8.0000
227 5.0000 8.0000
228 7.0000 8.0000
229 -6.0000 9.0000
230 -4.0000 9.0000
231 -2.0000 9.0000
232 0.0000 9.0000
233 2.0000 9.0000
234 4.0000 9.0000
235 6.0000 9.0000
236 -5.0000 10.0000
237 -3.0000 10.0000
238 -1.0000 10.0000
239 1.0000 10.0000
240 3.0000 10.0000
241 5.0000 10.0000
242 -4.0000 11.0000
243 -2.0000 11.0000
244 0.0000 11.0000
245 2.0000 11.0000
246 4.0000 11.0000
247 -3.0000 12.0000
248 -1.0000 12.0000
249 1.0000 12.0000
250 3.0000 12.0000
251 -2.0000 13.0000
252 0.0000 13.0000
253 2.0000 13.0000
254 -1.0000 14.0000
255 1.0000 14.0000
256 0.0000 15.0000
DEMAND_SECTION
1 0
2 300
3 300
4 180
5 300
6 180
7 128
8 180
9 180
10 128
11 100
12 128
13 180
14 128
15 100
16 81
17 100
18 128
19 128
20 100
21 81
22 69
23 81
24 100
25 128
26 100
27 81
28 69
29 60
30 69
31 81
32 100
33 100
34 81
35 69
36 60
37 52
38 60
39 69
40 81
41 100
42 81
43 69
44 60
45 52
46 47
47 52
48 60
49 69
50 81
51 81
52 69
53 60
54 52
55 47
56 42
57 47
58 52
59 60
60 69
61 81
62 69
63 60
64 52
65 47
66 42
67 39
68 42
69 47
70 52
71 60
72 69
73 69
74 60
75 52
76 47
77 42
78 39
79 36
80 39
81 42
82 47
83 52
84 60
85 69
86 60
87 52
88 47
89 42
90 39
91 36
92 33
93 36
94 39
95 42
96 47
97 52
98 60
99 60
100 52
101 47
102 42
103 39
104 36
105 33
106 31
107 33
108 36
109 39
110 42
111 47
112 52
113 60
114 52
115 47
116 42
117 39
118 36
119 33
120 31
121 29
122 31
123 33
124 36
125 39
126 42
127 47
128 52
129 52
130 47
131 42
132 39
133 36
134 33
135 31
136 29
137 29
138 31
139 33
140 36
141 39
142 42
143 47
144 52
145 47
146 42
147 39
148 36
149 33
150 31
151 29
152 29
153 31
154 33
155 36
156 39
157 42
158 47
159 47
160 42
161 39
162 36
163 33
164 31
165 29
166 29
167 31
168 33
169 36
170 39
171 42
172 47
173 42
174 39
175 36
176 33
177 31
178 29
179 29
180 31
181 33
182 36
183 39
184 42
185 42
186 39
187 36
188 33
189 31
190 29
191 29
192 31
193 33
194 36
195 39
196 42
197 39
198 36
199 33
200 31
201 29
202 29
203 31
204 33
205 36
206 39
207 39
208 36
209 33
210 31
211 29
212 29
213 31
214 33
215 36
216 39
217 36
218 33
219 31
220 29
221 29
222 31
223 33
224 36
225 36
226 33
227 31
228 29
229 29
230 31
231 33
232 36
233 33
234 31
235 29
236 29
237 31
238 33
239 33
240 31
241 29
242 29
243 31
244 33
245 31
246 29
247 29
248 31
249 31
250 29
251 29
252 31
253 29
254 29
255 29
256 29
CLUSTER_SECTION
1 21
2 2
3 3
4 2
5 3
6 4
7 5
8 5
9 4
10 4
11 5
12 5
13 4
14 6
15 6
16 5
17 5
18 7
19 6
20 6
21 8
22 9
23 7
24 7
25 6
26 6
27 8
28 8
29 9
30 9
31 7
32 7
33 7
34 8
35 8
36 8
37 9
38 9
39 9
40 7
41 10
42 8
43 8
44 8
45 8
46 9
47 9
48 9
49 9
50 10
51 10
52 10
53 11
54 11
55 11
56 12
57 9
58 9
59 10
60 10
61 10
62 10
63 11
64 11
65 11
66 13
67 12
68 12
69 12
70 12
71 14
72 10
73 10
74 11
75 11
76 11
77 11
78 13
79 12
80 12
81 12
82 12
83 14
84 14
85 14
86 11
87 11
88 11
89 11
90 13
91 13
92 12
93 12
94 12
95 12
96 12
97 14
98 14
99 14
100 15
101 13
102 13
103 13
104 13
105 13
106 12
107 12
108 12
109 12
110 14
111 14
112 14
113 14
114 15
115 15
116 13
117 13
118 13
119 13
120 13
121 16
122 16
123 16
124 16
125 16
126 14
127 14
128 15
129 15
130 1
131 1
132 13
133 13
134 13
135 13
136 17
137 16
138 16
139 16
140 16
141 16
142 15
143 15
144 15
145 1
146 1
147 1
148 13
149 13
150 17
151 17
152 16
153 16
154 16
155 16
156 18
157 15
158 15
159 1
160 1
161 1
162 1
163 15
164 17
165 17
166 16
167 16
168 16
169 18
170 18
171 15
172 15
173 1
174 1
175 1
176 15
177 17
178 17
179 16
180 16
181 16
182 18
183 18
184 15
185 1
186 1
187 1
188 15
189 17
190 17
191 16
192 16
193 18
194 18
195 18
196 18
197 1
198 1
199 1
200 17
201 17
202 16
203 18
204 18
205 18
206 18
207 18
208 17
209 17
210 17
211 17
212 18
213 18
214 18
215 18
216 19
217 17
218 17
219 17
220 17
221 18
222 18
223 18
224 19
225 19
226 17
227 17
228 17
229 19
230 19
231 19
232 19
233 19
234 17
235 17
236 19
237 19
238 19
239 19
240 19
241 19
242 19
243 19
244 19
245 19
246 19
247 19
248 19
249 19
250 19
251 20
252 20
253 20
254 20
255 20
256 20
DEPOT_SECTION
1
-1
EOF
